(set-info :smt-lib-version 2.6)
(set-logic QF_AX)
(set-info :source |
Benchmarks used in the followin paper:
Big proof engines as little proof engines: new results on rewrite-based satisfiability procedure
Alessandro Armando, Maria Paola Bonacina, Silvio Ranise, Stephan Schulz. 
PDPAR'05
http://www.ai.dist.unige.it/pdpar05/


|)
(set-info :category "crafted")
(set-info :status unsat)
(declare-sort Index 0)
(declare-sort Element 0)
(declare-fun a_478 () (Array Index Element))
(declare-fun a_479 () (Array Index Element))
(declare-fun a_480 () (Array Index Element))
(declare-fun a_481 () (Array Index Element))
(declare-fun a_482 () (Array Index Element))
(declare-fun a_483 () (Array Index Element))
(declare-fun a_484 () (Array Index Element))
(declare-fun a_485 () (Array Index Element))
(declare-fun a_486 () (Array Index Element))
(declare-fun a_487 () (Array Index Element))
(declare-fun a_488 () (Array Index Element))
(declare-fun a_489 () (Array Index Element))
(declare-fun a_490 () (Array Index Element))
(declare-fun a_491 () (Array Index Element))
(declare-fun a_492 () (Array Index Element))
(declare-fun a_493 () (Array Index Element))
(declare-fun a_494 () (Array Index Element))
(declare-fun a_495 () (Array Index Element))
(declare-fun a_496 () (Array Index Element))
(declare-fun a_497 () (Array Index Element))
(declare-fun a_498 () (Array Index Element))
(declare-fun a_499 () (Array Index Element))
(declare-fun a_500 () (Array Index Element))
(declare-fun a_501 () (Array Index Element))
(declare-fun a_502 () (Array Index Element))
(declare-fun a_503 () (Array Index Element))
(declare-fun a_504 () (Array Index Element))
(declare-fun a_505 () (Array Index Element))
(declare-fun a_506 () (Array Index Element))
(declare-fun a_507 () (Array Index Element))
(declare-fun a_508 () (Array Index Element))
(declare-fun a_509 () (Array Index Element))
(declare-fun a_510 () (Array Index Element))
(declare-fun a_511 () (Array Index Element))
(declare-fun a_512 () (Array Index Element))
(declare-fun a_513 () (Array Index Element))
(declare-fun a_514 () (Array Index Element))
(declare-fun a_515 () (Array Index Element))
(declare-fun a_516 () (Array Index Element))
(declare-fun a_517 () (Array Index Element))
(declare-fun a1 () (Array Index Element))
(declare-fun e1 () Element)
(declare-fun e10 () Element)
(declare-fun e11 () Element)
(declare-fun e12 () Element)
(declare-fun e13 () Element)
(declare-fun e14 () Element)
(declare-fun e15 () Element)
(declare-fun e16 () Element)
(declare-fun e17 () Element)
(declare-fun e18 () Element)
(declare-fun e19 () Element)
(declare-fun e2 () Element)
(declare-fun e20 () Element)
(declare-fun e3 () Element)
(declare-fun e4 () Element)
(declare-fun e5 () Element)
(declare-fun e6 () Element)
(declare-fun e7 () Element)
(declare-fun e8 () Element)
(declare-fun e9 () Element)
(declare-fun i1 () Index)
(declare-fun i10 () Index)
(declare-fun i11 () Index)
(declare-fun i12 () Index)
(declare-fun i13 () Index)
(declare-fun i14 () Index)
(declare-fun i15 () Index)
(declare-fun i16 () Index)
(declare-fun i17 () Index)
(declare-fun i18 () Index)
(declare-fun i19 () Index)
(declare-fun i2 () Index)
(declare-fun i20 () Index)
(declare-fun i3 () Index)
(declare-fun i4 () Index)
(declare-fun i5 () Index)
(declare-fun i6 () Index)
(declare-fun i7 () Index)
(declare-fun i8 () Index)
(declare-fun i9 () Index)
(assert (= a_478 (store a1 i1 e1)))
(assert (= a_479 (store a_478 i2 e2)))
(assert (= a_480 (store a_479 i3 e3)))
(assert (= a_481 (store a_480 i4 e4)))
(assert (= a_482 (store a_481 i5 e5)))
(assert (= a_483 (store a_482 i6 e6)))
(assert (= a_484 (store a_483 i7 e7)))
(assert (= a_485 (store a_484 i8 e8)))
(assert (= a_486 (store a_485 i9 e9)))
(assert (= a_487 (store a_486 i10 e10)))
(assert (= a_488 (store a_487 i11 e11)))
(assert (= a_489 (store a_488 i12 e12)))
(assert (= a_490 (store a_489 i13 e13)))
(assert (= a_491 (store a_490 i14 e14)))
(assert (= a_492 (store a_491 i15 e15)))
(assert (= a_493 (store a_492 i16 e16)))
(assert (= a_494 (store a_493 i17 e17)))
(assert (= a_495 (store a_494 i18 e18)))
(assert (= a_496 (store a_495 i19 e19)))
(assert (= a_497 (store a_496 i20 e20)))
(assert (= a_498 (store a1 i6 e6)))
(assert (= a_499 (store a_498 i16 e16)))
(assert (= a_500 (store a_499 i14 e14)))
(assert (= a_501 (store a_500 i13 e13)))
(assert (= a_502 (store a_501 i2 e2)))
(assert (= a_503 (store a_502 i18 e18)))
(assert (= a_504 (store a_503 i19 e19)))
(assert (= a_505 (store a_504 i12 e12)))
(assert (= a_506 (store a_505 i11 e11)))
(assert (= a_507 (store a_506 i7 e7)))
(assert (= a_508 (store a_507 i4 e4)))
(assert (= a_509 (store a_508 i9 e9)))
(assert (= a_510 (store a_509 i5 e5)))
(assert (= a_511 (store a_510 i20 e20)))
(assert (= a_512 (store a_511 i1 e1)))
(assert (= a_513 (store a_512 i10 e10)))
(assert (= a_514 (store a_513 i15 e15)))
(assert (= a_515 (store a_514 i17 e17)))
(assert (= a_516 (store a_515 i8 e8)))
(assert (= a_517 (store a_516 i3 e3)))
(assert (not (= i19 i20)))
(assert (not (= i18 i20)))
(assert (not (= i18 i19)))
(assert (not (= i17 i20)))
(assert (not (= i17 i19)))
(assert (not (= i17 i18)))
(assert (not (= i16 i20)))
(assert (not (= i16 i19)))
(assert (not (= i16 i18)))
(assert (not (= i16 i17)))
(assert (not (= i15 i20)))
(assert (not (= i15 i19)))
(assert (not (= i15 i18)))
(assert (not (= i15 i17)))
(assert (not (= i15 i16)))
(assert (not (= i14 i20)))
(assert (not (= i14 i19)))
(assert (not (= i14 i18)))
(assert (not (= i14 i17)))
(assert (not (= i14 i16)))
(assert (not (= i14 i15)))
(assert (not (= i13 i20)))
(assert (not (= i13 i19)))
(assert (not (= i13 i18)))
(assert (not (= i13 i17)))
(assert (not (= i13 i16)))
(assert (not (= i13 i15)))
(assert (not (= i13 i14)))
(assert (not (= i12 i20)))
(assert (not (= i12 i19)))
(assert (not (= i12 i18)))
(assert (not (= i12 i17)))
(assert (not (= i12 i16)))
(assert (not (= i12 i15)))
(assert (not (= i12 i14)))
(assert (not (= i12 i13)))
(assert (not (= i11 i20)))
(assert (not (= i11 i19)))
(assert (not (= i11 i18)))
(assert (not (= i11 i17)))
(assert (not (= i11 i16)))
(assert (not (= i11 i15)))
(assert (not (= i11 i14)))
(assert (not (= i11 i13)))
(assert (not (= i11 i12)))
(assert (not (= i10 i20)))
(assert (not (= i10 i19)))
(assert (not (= i10 i18)))
(assert (not (= i10 i17)))
(assert (not (= i10 i16)))
(assert (not (= i10 i15)))
(assert (not (= i10 i14)))
(assert (not (= i10 i13)))
(assert (not (= i10 i12)))
(assert (not (= i10 i11)))
(assert (not (= i9 i20)))
(assert (not (= i9 i19)))
(assert (not (= i9 i18)))
(assert (not (= i9 i17)))
(assert (not (= i9 i16)))
(assert (not (= i9 i15)))
(assert (not (= i9 i14)))
(assert (not (= i9 i13)))
(assert (not (= i9 i12)))
(assert (not (= i9 i11)))
(assert (not (= i9 i10)))
(assert (not (= i8 i20)))
(assert (not (= i8 i19)))
(assert (not (= i8 i18)))
(assert (not (= i8 i17)))
(assert (not (= i8 i16)))
(assert (not (= i8 i15)))
(assert (not (= i8 i14)))
(assert (not (= i8 i13)))
(assert (not (= i8 i12)))
(assert (not (= i8 i11)))
(assert (not (= i8 i10)))
(assert (not (= i8 i9)))
(assert (not (= i7 i20)))
(assert (not (= i7 i19)))
(assert (not (= i7 i18)))
(assert (not (= i7 i17)))
(assert (not (= i7 i16)))
(assert (not (= i7 i15)))
(assert (not (= i7 i14)))
(assert (not (= i7 i13)))
(assert (not (= i7 i12)))
(assert (not (= i7 i11)))
(assert (not (= i7 i10)))
(assert (not (= i7 i9)))
(assert (not (= i7 i8)))
(assert (not (= i6 i20)))
(assert (not (= i6 i19)))
(assert (not (= i6 i18)))
(assert (not (= i6 i17)))
(assert (not (= i6 i16)))
(assert (not (= i6 i15)))
(assert (not (= i6 i14)))
(assert (not (= i6 i13)))
(assert (not (= i6 i12)))
(assert (not (= i6 i11)))
(assert (not (= i6 i10)))
(assert (not (= i6 i9)))
(assert (not (= i6 i8)))
(assert (not (= i6 i7)))
(assert (not (= i5 i20)))
(assert (not (= i5 i19)))
(assert (not (= i5 i18)))
(assert (not (= i5 i17)))
(assert (not (= i5 i16)))
(assert (not (= i5 i15)))
(assert (not (= i5 i14)))
(assert (not (= i5 i13)))
(assert (not (= i5 i12)))
(assert (not (= i5 i11)))
(assert (not (= i5 i10)))
(assert (not (= i5 i9)))
(assert (not (= i5 i8)))
(assert (not (= i5 i7)))
(assert (not (= i5 i6)))
(assert (not (= i4 i20)))
(assert (not (= i4 i19)))
(assert (not (= i4 i18)))
(assert (not (= i4 i17)))
(assert (not (= i4 i16)))
(assert (not (= i4 i15)))
(assert (not (= i4 i14)))
(assert (not (= i4 i13)))
(assert (not (= i4 i12)))
(assert (not (= i4 i11)))
(assert (not (= i4 i10)))
(assert (not (= i4 i9)))
(assert (not (= i4 i8)))
(assert (not (= i4 i7)))
(assert (not (= i4 i6)))
(assert (not (= i4 i5)))
(assert (not (= i3 i20)))
(assert (not (= i3 i19)))
(assert (not (= i3 i18)))
(assert (not (= i3 i17)))
(assert (not (= i3 i16)))
(assert (not (= i3 i15)))
(assert (not (= i3 i14)))
(assert (not (= i3 i13)))
(assert (not (= i3 i12)))
(assert (not (= i3 i11)))
(assert (not (= i3 i10)))
(assert (not (= i3 i9)))
(assert (not (= i3 i8)))
(assert (not (= i3 i7)))
(assert (not (= i3 i6)))
(assert (not (= i3 i5)))
(assert (not (= i3 i4)))
(assert (not (= i2 i20)))
(assert (not (= i2 i19)))
(assert (not (= i2 i18)))
(assert (not (= i2 i17)))
(assert (not (= i2 i16)))
(assert (not (= i2 i15)))
(assert (not (= i2 i14)))
(assert (not (= i2 i13)))
(assert (not (= i2 i12)))
(assert (not (= i2 i11)))
(assert (not (= i2 i10)))
(assert (not (= i2 i9)))
(assert (not (= i2 i8)))
(assert (not (= i2 i7)))
(assert (not (= i2 i6)))
(assert (not (= i2 i5)))
(assert (not (= i2 i4)))
(assert (not (= i2 i3)))
(assert (not (= i1 i20)))
(assert (not (= i1 i19)))
(assert (not (= i1 i18)))
(assert (not (= i1 i17)))
(assert (not (= i1 i16)))
(assert (not (= i1 i15)))
(assert (not (= i1 i14)))
(assert (not (= i1 i13)))
(assert (not (= i1 i12)))
(assert (not (= i1 i11)))
(assert (not (= i1 i10)))
(assert (not (= i1 i9)))
(assert (not (= i1 i8)))
(assert (not (= i1 i7)))
(assert (not (= i1 i6)))
(assert (not (= i1 i5)))
(assert (not (= i1 i4)))
(assert (not (= i1 i3)))
(assert (not (= i1 i2)))
(assert (not (= a_497 a_517)))
(check-sat)
(exit)
